Cost: 406
0-12-9-32-17-0
0-40-44-3-16-6-0
0-34-27-13-19-35-0
0-26-0
0-49-23-41-22-28-2-0
0-7-11-38-10-0
0-30-48-5-29-45-0
Cost: 406
0-2-28-22-42-23-49-0
0-30-48-5-29-45-0
0-34-27-13-19-35-0
0-12-9-40-17-0
0-10-38-11-7-0
0-26-0
0-6-16-3-44-32-0
Cost: 406
0-12-9-32-17-0
0-40-44-3-16-6-0
0-34-27-13-19-35-0
0-26-0
0-49-23-41-22-28-2-0
0-7-11-38-10-0
0-30-48-5-29-45-0
Cost: 406
0-17-40-9-12-0
0-45-29-5-48-30-0
0-26-0
0-49-23-42-22-28-2-0
0-34-27-13-19-35-0
0-10-38-11-7-0
0-32-44-3-16-6-0
Cost: 406
0-26-0
0-45-29-5-48-30-0
0-12-9-32-17-0
0-10-38-11-7-0
0-35-19-13-27-34-0
0-49-23-42-22-28-2-0
0-40-44-3-16-6-0
Cost: 406
0-26-0
0-7-11-38-10-0
0-45-29-5-48-30-0
0-49-23-42-22-28-2-0
0-17-40-9-12-0
0-6-16-3-44-32-0
0-34-27-13-19-35-0
Cost: 406
0-12-9-40-17-0
0-35-19-13-27-34-0
0-26-0
0-6-16-3-44-32-0
0-7-11-38-10-0
0-49-23-42-22-28-2-0
0-45-29-5-48-30-0
Cost: 406
0-12-9-40-17-0
0-35-19-13-27-34-0
0-26-0
0-6-16-3-44-32-0
0-7-11-38-10-0
0-49-23-42-22-28-2-0
0-45-29-5-48-30-0
Cost: 406
0-12-9-40-17-0
0-35-19-13-27-34-0
0-26-0
0-6-16-3-44-32-0
0-7-11-38-10-0
0-49-23-42-22-28-2-0
0-45-29-5-48-30-0
Cost: 406
0-17-40-9-12-0
0-32-44-3-16-6-0
0-34-27-13-19-35-0
0-26-0
0-45-29-5-48-30-0
0-7-11-38-10-0
0-2-28-22-41-23-49-0
Cost: 406
0-45-29-5-48-30-0
0-2-28-22-41-23-49-0
0-12-9-40-17-0
0-6-16-3-44-32-0
0-7-11-38-10-0
0-34-27-13-19-35-0
0-26-0
Cost: 406
0-45-29-5-48-30-0
0-2-28-22-41-23-49-0
0-12-9-40-17-0
0-6-16-3-44-32-0
0-7-11-38-10-0
0-34-27-13-19-35-0
0-26-0
Cost: 406
0-45-29-5-48-30-0
0-2-28-22-41-23-49-0
0-12-9-40-17-0
0-6-16-3-44-32-0
0-7-11-38-10-0
0-34-27-13-19-35-0
0-26-0
Cost: 406
0-26-0
0-10-38-11-7-0
0-17-40-9-12-0
0-34-27-13-19-35-0
0-45-29-5-48-30-0
0-49-23-41-22-28-2-0
0-32-44-3-16-6-0
Cost: 406
0-45-29-5-48-30-0
0-2-28-22-41-23-49-0
0-12-9-40-17-0
0-6-16-3-44-32-0
0-7-11-38-10-0
0-34-27-13-19-35-0
0-26-0
Cost: 406
0-45-29-5-48-30-0
0-2-28-22-41-23-49-0
0-12-9-40-17-0
0-6-16-3-44-32-0
0-7-11-38-10-0
0-34-27-13-19-35-0
0-26-0
Cost: 406
0-30-48-5-29-45-0
0-49-23-41-22-28-2-0
0-26-0
0-17-40-9-12-0
0-10-38-11-7-0
0-35-19-13-27-34-0
0-6-16-3-44-32-0
Cost: 406
0-7-11-38-10-0
0-30-48-5-29-45-0
0-6-16-3-44-32-0
0-49-23-41-22-28-2-0
0-26-0
0-34-27-13-19-35-0
0-12-9-40-17-0
Cost: 406
0-6-16-3-44-32-0
0-10-38-11-7-0
0-34-27-13-19-35-0
0-49-23-42-22-28-2-0
0-26-0
0-12-9-40-17-0
0-45-29-5-48-30-0
Cost: 406
0-6-16-3-44-32-0
0-10-38-11-7-0
0-34-27-13-19-35-0
0-49-23-42-22-28-2-0
0-26-0
0-12-9-40-17-0
0-45-29-5-48-30-0
Cost: 406
0-26-0
0-2-28-22-41-23-49-0
0-34-27-13-19-35-0
0-6-16-3-44-32-0
0-7-11-38-10-0
0-30-48-5-29-45-0
0-12-9-40-17-0
Cost: 406
0-26-0
0-2-28-22-41-23-49-0
0-34-27-13-19-35-0
0-6-16-3-44-32-0
0-7-11-38-10-0
0-30-48-5-29-45-0
0-12-9-40-17-0
Cost: 406
0-45-29-5-48-30-0
0-12-9-40-17-0
0-26-0
0-7-11-38-10-0
0-6-16-3-44-32-0
0-49-23-42-22-28-2-0
0-34-27-13-19-35-0
Cost: 406
0-26-0
0-2-28-22-41-23-49-0
0-34-27-13-19-35-0
0-6-16-3-44-32-0
0-7-11-38-10-0
0-30-48-5-29-45-0
0-12-9-40-17-0
Cost: 406
0-7-11-38-10-0
0-30-48-5-29-45-0
0-6-16-3-44-32-0
0-49-23-41-22-28-2-0
0-26-0
0-34-27-13-19-35-0
0-12-9-40-17-0
Cost: 406
0-6-16-3-44-32-0
0-10-38-11-7-0
0-34-27-13-19-35-0
0-49-23-42-22-28-2-0
0-26-0
0-12-9-40-17-0
0-45-29-5-48-30-0
Cost: 406
0-7-11-38-10-0
0-6-16-3-44-32-0
0-45-29-5-48-30-0
0-26-0
0-12-9-40-17-0
0-34-27-13-19-35-0
0-49-23-42-22-28-2-0
Cost: 407
0-12-9-40-17-0
0-45-29-5-48-30-0
0-10-38-11-7-0
0-27-13-19-35-34-0
0-32-44-3-16-6-0
0-49-23-41-22-28-2-0
0-26-0
Cost: 408
0-45-29-5-48-30-0
0-7-11-38-10-0
0-26-0
0-35-19-13-27-34-0
0-12-9-32-17-0
0-2-28-22-42-6-0
0-16-49-24-3-44-40-0
Cost: 406
0-26-0
0-45-29-5-48-30-0
0-12-9-40-17-0
0-49-23-42-22-28-2-0
0-10-38-11-7-0
0-35-19-13-27-34-0
0-32-44-3-16-6-0
Cost: 406
0-12-9-40-17-0
0-26-0
0-34-27-13-19-35-0
0-10-38-11-7-0
0-6-16-3-44-32-0
0-49-23-41-22-28-2-0
0-30-48-5-29-45-0
